NAME : portcgen-18-23
COMMENT : portcgen N=18, seed=23
TYPE : TSP
DIMENSION : 18
EDGE_WEIGHT_TYPE : EUC_2D
NODE_COORD_SECTION
1 146899 -34314
2 60960 53680
3 -84618 92103
4 246362 13361
5 389206 54537
6 281823 315116
7 493556 -268650
8 -124452 -35203
9 406193 -107385
10 84206 -171941
11 88870 13556
12 91863 -3690
13 -340528 -284711
14 -162894 -94092
15 -24216 -107481
16 7809 -268072
17 -314165 -148023
18 -193730 -56423
